NAME: tsp5_26
COMMENT: 5-tsp problem (Padberg/Rinaldi)
TYPE: TSP
DIMENSION: 5
EDGE_WEIGHT_TYPE : EUC_2D
NODE_COORD_SECTION
1.00 28.61 29.19
2.00 31.30 3.58
3.00 33.17 19.02
4.00 15.02 11.81
5.00 7.19 19.17
